
n_res = 4;
rcap = [81, 88, 530, 563];
rtype = [1, 1, 2, 2];
n_tasks = 100;
modes =  [{1, 2, 3}, {4, 5, 6}, {7, 8, 9}, {10, 11, 12}, {13, 14, 15}, {16, 17, 18}, {19, 20, 21}, {22, 23, 24}, {25, 26, 27}, {28, 29, 30}, {31, 32, 33}, {34, 35, 36}, {37, 38, 39}, {40, 41, 42}, {43, 44, 45}, {46, 47, 48}, {49, 50, 51}, {52, 53, 54}, {55, 56, 57}, {58, 59, 60}, {61, 62, 63}, {64, 65, 66}, {67, 68, 69}, {70, 71, 72}, {73, 74, 75}, {76, 77, 78}, {79, 80, 81}, {82, 83, 84}, {85, 86, 87}, {88, 89, 90}, {91, 92, 93}, {94, 95, 96}, {97, 98, 99}, {100, 101, 102}, {103, 104, 105}, {106, 107, 108}, {109, 110, 111}, {112, 113, 114}, {115, 116, 117}, {118, 119, 120}, {121, 122, 123}, {124, 125, 126}, {127, 128, 129}, {130, 131, 132}, {133, 134, 135}, {136, 137, 138}, {139, 140, 141}, {142, 143, 144}, {145, 146, 147}, {148, 149, 150}, {151, 152, 153}, {154, 155, 156}, {157, 158, 159}, {160, 161, 162}, {163, 164, 165}, {166, 167, 168}, {169, 170, 171}, {172, 173, 174}, {175, 176, 177}, {178, 179, 180}, {181, 182, 183}, {184, 185, 186}, {187, 188, 189}, {190, 191, 192}, {193, 194, 195}, {196, 197, 198}, {199, 200, 201}, {202, 203, 204}, {205, 206, 207}, {208, 209, 210}, {211, 212, 213}, {214, 215, 216}, {217, 218, 219}, {220, 221, 222}, {223, 224, 225}, {226, 227, 228}, {229, 230, 231}, {232, 233, 234}, {235, 236, 237}, {238, 239, 240}, {241, 242, 243}, {244, 245, 246}, {247, 248, 249}, {250, 251, 252}, {253, 254, 255}, {256, 257, 258}, {259, 260, 261}, {262, 263, 264}, {265, 266, 267}, {268, 269, 270}, {271, 272, 273}, {274, 275, 276}, {277, 278, 279}, {280, 281, 282}, {283, 284, 285}, {286, 287, 288}, {289, 290, 291}, {292, 293, 294}, {295, 296, 297}, {298, 299, 300}];
succ =  [{34, 33, 31, 30, 29, 28, 24, 18, 15, 9, 8}, {57, 49, 48, 44, 41, 39, 38, 36, 33, 32, 31, 30, 27, 23, 11}, {49, 43, 38, 32, 31, 30, 29, 26, 19, 18, 9}, {48, 44, 41, 40, 38, 30, 29, 28, 26, 22, 21, 20, 18}, {47, 45, 44, 43, 40, 39, 34, 31, 29, 26, 12}, {49, 48, 45, 44, 43, 40, 39, 34, 31, 29, 26, 18}, {61, 51, 48, 44, 43, 41, 33, 31, 30, 29, 28, 21}, {57, 56, 54, 51, 50, 48, 47, 43, 41, 40, 39, 37, 36, 26}, {67, 58, 57, 56, 54, 52, 51, 50, 48, 47, 46, 45, 44, 42, 40, 39}, {61, 56, 51, 50, 48, 44, 43, 41, 37, 35, 25}, {55, 54, 50, 47, 46, 45, 43, 37, 26}, {57, 56, 51, 42, 36, 35, 30, 28}, {67, 57, 54, 49, 47, 44, 34, 21}, {67, 60, 55, 54, 51, 49, 48, 47, 44, 37, 36}, {62, 54, 51, 49, 45, 43, 42, 39, 35}, {62, 56, 50, 43, 42, 37, 35, 30}, {67, 63, 61, 60, 58, 57, 56, 55, 54, 53, 43, 37, 36}, {67, 63, 58, 57, 55, 53, 51, 47, 37, 36}, {64, 60, 54, 53, 52, 47, 46, 42}, {69, 67, 64, 61, 60, 58, 55, 53, 52, 46, 42}, {100, 68, 60, 58, 56, 55, 53, 52, 45, 42}, {69, 62, 59, 58, 56, 55, 52, 42, 35}, {79, 68, 67, 63, 62, 60, 56, 55, 54, 53, 46}, {100, 98, 68, 67, 61, 60, 59, 58, 55, 53, 52, 42}, {73, 68, 64, 63, 62, 60, 58, 57, 36}, {100, 78, 69, 64, 61, 58, 42, 35}, {100, 64, 62, 60, 53, 43, 42}, {67, 60, 55, 49, 37}, {100, 98, 78, 69, 67, 60, 59, 56, 53, 42}, {79, 77, 73, 68, 63, 60, 58, 54, 46}, {80, 79, 71, 70, 66, 63, 62, 55, 54, 50}, {98, 80, 77, 74, 73, 71, 68, 66, 63, 56, 52}, {100, 99, 74, 69, 66, 59, 58, 55, 52}, {100, 98, 96, 94, 80, 79, 78, 77, 76, 73, 72, 70, 69, 68, 66, 63, 58}, {98, 79, 74, 73, 72, 71, 70, 68, 67, 65, 63, 60, 53}, {99, 93, 77, 75, 69, 66, 65, 46}, {100, 97, 90, 80, 74, 71, 69, 68, 65, 64, 52}, {100, 77, 74, 72, 69, 66, 65, 62, 59, 51}, {94, 78, 70, 68, 65, 63, 60, 55, 53}, {99, 98, 97, 95, 94, 92, 78, 71, 68, 66, 62, 55}, {98, 97, 80, 71, 68, 55, 52}, {96, 93, 80, 79, 77, 76, 74, 73, 72, 70, 66, 65, 63}, {98, 97, 95, 90, 73, 71, 69, 68, 66, 52}, {100, 99, 98, 97, 96, 94, 93, 91, 90, 78, 77, 75, 73, 71, 70, 69, 65}, {95, 79, 78, 77, 75, 70, 69, 64, 59}, {100, 98, 95, 87, 80, 78, 76, 74, 72, 70, 59}, {100, 99, 98, 95, 78, 76, 71, 68, 66, 62, 61}, {96, 93, 88, 80, 79, 78, 77, 73, 64, 63}, {100, 99, 98, 94, 85, 78, 76, 68, 58}, {98, 97, 95, 94, 91, 90, 86, 85, 78, 76, 75, 73, 72, 68}, {99, 97, 93, 91, 90, 88, 71, 70, 64}, {96, 94, 93, 91, 89, 85, 82, 79, 78, 75, 72, 70}, {99, 97, 96, 93, 92, 90, 87, 84, 83, 77, 75, 66}, {100, 96, 95, 94, 93, 92, 91, 90, 84, 78, 75, 69}, {93, 91, 90, 87, 86, 77, 76, 75, 73, 72}, {94, 93, 91, 89, 88, 85, 84, 83, 76, 65}, {92, 87, 79, 77, 75, 72, 69}, {90, 89, 88, 84, 83, 82, 75, 65}, {97, 96, 94, 91, 90, 88, 84, 81, 71}, {95, 93, 91, 90, 88, 86, 84, 83, 80}, {94, 90, 89, 87, 86, 84, 83, 81, 77}, {96, 89, 88, 87, 86, 85, 84, 83, 81}, {99, 97, 91, 90, 87, 85, 84, 75}, {98, 92, 87, 86, 85, 83, 82, 76}, {95, 92, 87, 86, 81}, {91, 89, 86, 85, 81}, {94, 83, 81, 77}, {93, 87, 82, 81}, {89, 88, 85, 82}, {92, 86, 84}, {89, 85, 82}, {88, 84}, {83, 81}, {83, 82}, {81}, {81}, {82}, {81}, {83}, {81}, {}, {}, {}, {}, {}, {}, {}, {}, {}, {}, {}, {}, {}, {}, {}, {}, {}, {}, {}, {}];
n_opt = 300;
dur = [2, 4, 9, 5, 6, 7, 6, 7, 9, 1, 5, 7, 3, 4, 9, 5, 8, 9, 7, 8, 10, 1, 5, 6, 3, 4, 9, 1, 2, 10, 6, 9, 10, 8, 9, 10, 4, 5, 10, 5, 8, 10, 5, 6, 10, 5, 8, 10, 4, 8, 10, 1, 6, 8, 3, 6, 7, 1, 4, 9, 1, 7, 10, 2, 7, 10, 2, 7, 8, 1, 8, 10, 3, 4, 5, 2, 7, 9, 2, 7, 9, 5, 8, 10, 2, 8, 9, 1, 7, 10, 2, 3, 9, 8, 9, 10, 3, 6, 10, 2, 8, 10, 3, 6, 9, 3, 7, 9, 2, 7, 8, 4, 5, 7, 6, 7, 8, 6, 9, 10, 3, 5, 10, 1, 9, 10, 2, 3, 4, 1, 6, 7, 8, 9, 10, 1, 4, 10, 2, 3, 4, 6, 7, 8, 3, 4, 8, 3, 4, 9, 6, 9, 10, 3, 6, 10, 6, 7, 10, 2, 6, 9, 3, 9, 10, 3, 8, 10, 1, 3, 7, 2, 3, 6, 1, 2, 5, 1, 4, 9, 2, 6, 7, 5, 6, 9, 6, 8, 9, 3, 4, 10, 4, 9, 10, 3, 5, 6, 4, 8, 10, 1, 5, 8, 2, 4, 10, 5, 6, 10, 2, 6, 10, 3, 4, 5, 3, 4, 8, 1, 4, 8, 1, 7, 10, 4, 5, 7, 1, 9, 10, 5, 6, 8, 2, 3, 4, 5, 6, 8, 3, 6, 7, 3, 5, 6, 5, 6, 10, 4, 5, 6, 2, 3, 8, 2, 5, 10, 2, 3, 9, 1, 7, 8, 1, 2, 9, 3, 6, 10, 1, 2, 3, 3, 6, 10, 1, 2, 8, 1, 5, 7, 5, 8, 10, 3, 6, 10, 2, 3, 10, 1, 2, 4, 6, 8, 10, 4, 9, 10];
rreq = [|1, 1, 1, 9, 8, 8, 5, 4, 4, 7, 3, 3, 2, 1, 1, 6, 6, 6, 9, 9, 9, 9, 9, 8, 9, 9, 9, 6, 5, 4, 6, 6, 4, 5, 5, 4, 6, 3, 2, 7, 6, 5, 3, 2, 1, 9, 7, 5, 4, 4, 4, 9, 3, 2, 9, 4, 4, 10, 10, 10, 8, 7, 5, 8, 7, 6, 8, 6, 1, 10, 8, 7, 3, 2, 2, 5, 5, 2, 9, 8, 8, 9, 6, 5, 10, 10, 10, 9, 6, 6, 6, 5, 5, 3, 3, 3, 8, 8, 8, 3, 1, 1, 9, 8, 7, 8, 7, 6, 6, 5, 4, 8, 7, 6, 5, 4, 3, 5, 4, 4, 6, 6, 6, 5, 3, 2, 6, 6, 4, 3, 3, 3, 2, 1, 1, 10, 9, 9, 9, 6, 5, 3, 1, 1, 6, 5, 4, 8, 8, 8, 6, 5, 1, 5, 4, 3, 8, 7, 6, 9, 9, 8, 5, 3, 3, 8, 7, 7, 6, 4, 3, 4, 3, 3, 6, 6, 6, 6, 5, 3, 6, 5, 4, 7, 5, 3, 8, 5, 4, 6, 5, 4, 6, 4, 3, 4, 4, 4, 4, 3, 2, 3, 3, 3, 7, 6, 2, 10, 6, 2, 6, 3, 1, 6, 4, 4, 8, 6, 2, 6, 3, 1, 8, 7, 6, 3, 2, 2, 7, 7, 5, 7, 6, 5, 8, 8, 7, 4, 4, 3, 5, 4, 2, 10, 5, 4, 8, 7, 2, 10, 9, 8, 5, 4, 2, 6, 4, 3, 8, 8, 6, 3, 3, 3, 10, 5, 2, 9, 9, 9, 10, 8, 7, 4, 2, 1, 7, 7, 7, 5, 5, 4, 5, 5, 5, 7, 5, 3, 5, 3, 3, 5, 4, 3, 6, 5, 5, 3, 3, 2
 |5, 5, 4, 8, 3, 1, 5, 3, 3, 5, 3, 3, 2, 1, 1, 5, 2, 1, 2, 2, 2, 7, 7, 6, 7, 6, 6, 1, 1, 1, 4, 4, 3, 7, 6, 5, 5, 4, 3, 6, 6, 4, 5, 5, 3, 4, 2, 1, 4, 4, 1, 8, 8, 6, 6, 5, 4, 10, 7, 5, 10, 8, 8, 7, 4, 3, 7, 6, 5, 3, 2, 2, 6, 4, 4, 7, 7, 4, 4, 4, 3, 7, 7, 7, 3, 2, 2, 4, 2, 1, 9, 7, 1, 8, 8, 7, 4, 4, 4, 7, 7, 5, 6, 4, 3, 9, 8, 8, 4, 2, 2, 5, 4, 3, 4, 3, 3, 6, 6, 4, 6, 5, 3, 9, 8, 7, 6, 6, 5, 1, 1, 1, 7, 5, 5, 6, 5, 5, 4, 3, 3, 6, 5, 2, 8, 6, 5, 6, 4, 4, 4, 2, 1, 10, 7, 3, 4, 2, 2, 7, 6, 5, 8, 3, 2, 6, 4, 4, 9, 8, 8, 4, 3, 2, 8, 5, 4, 2, 2, 2, 9, 8, 7, 7, 3, 1, 6, 5, 4, 8, 7, 5, 7, 5, 5, 10, 7, 4, 2, 2, 2, 6, 5, 4, 9, 5, 1, 7, 6, 6, 5, 4, 4, 5, 3, 2, 5, 4, 4, 7, 4, 4, 10, 8, 8, 7, 7, 5, 6, 3, 2, 9, 8, 6, 5, 2, 1, 4, 4, 2, 7, 6, 4, 9, 7, 5, 9, 7, 4, 1, 1, 1, 10, 9, 8, 6, 4, 3, 9, 8, 7, 10, 6, 5, 8, 7, 5, 4, 2, 2, 4, 3, 3, 9, 7, 4, 5, 4, 4, 4, 3, 3, 4, 3, 3, 5, 4, 4, 10, 9, 8, 4, 3, 1, 8, 7, 7, 9, 9, 9
 |1, 1, 1, 9, 9, 9, 8, 6, 2, 9, 9, 8, 5, 4, 2, 9, 8, 6, 4, 3, 3, 6, 6, 6, 3, 3, 3, 7, 7, 7, 7, 4, 3, 9, 8, 6, 5, 3, 1, 8, 5, 1, 9, 5, 3, 10, 7, 5, 5, 5, 1, 8, 8, 8, 6, 6, 6, 6, 5, 1, 5, 5, 3, 7, 3, 2, 6, 4, 4, 7, 7, 6, 4, 3, 2, 5, 3, 3, 10, 8, 8, 6, 4, 3, 6, 6, 5, 4, 4, 4, 4, 2, 1, 9, 8, 8, 4, 2, 2, 6, 3, 1, 9, 8, 7, 6, 5, 5, 7, 6, 5, 5, 4, 4, 5, 5, 5, 10, 10, 10, 7, 3, 1, 6, 5, 5, 6, 3, 1, 7, 6, 6, 10, 9, 8, 9, 8, 8, 6, 3, 2, 6, 5, 5, 1, 1, 1, 3, 2, 2, 8, 6, 5, 5, 5, 4, 5, 5, 3, 7, 3, 2, 8, 6, 6, 2, 2, 2, 3, 3, 2, 3, 3, 1, 3, 2, 2, 6, 6, 4, 5, 5, 2, 2, 1, 1, 4, 4, 4, 8, 7, 6, 7, 7, 6, 6, 6, 6, 5, 4, 3, 8, 7, 6, 9, 8, 7, 7, 6, 3, 8, 5, 4, 8, 7, 4, 9, 6, 6, 3, 3, 2, 7, 6, 6, 6, 6, 6, 3, 2, 1, 7, 7, 5, 9, 7, 7, 10, 8, 8, 5, 4, 4, 10, 9, 9, 10, 9, 8, 9, 8, 6, 8, 7, 7, 9, 5, 4, 8, 7, 7, 8, 7, 4, 10, 6, 6, 1, 1, 1, 3, 3, 1, 5, 3, 3, 4, 4, 2, 7, 7, 6, 9, 8, 8, 3, 2, 1, 4, 4, 3, 8, 7, 6, 7, 4, 2, 6, 5, 4
 |6, 5, 3, 9, 7, 4, 9, 9, 9, 7, 4, 1, 9, 8, 6, 9, 6, 4, 8, 6, 5, 9, 8, 9, 5, 4, 3, 9, 8, 7, 8, 7, 6, 2, 1, 1, 7, 5, 5, 5, 3, 3, 2, 2, 2, 6, 5, 5, 10, 8, 8, 8, 4, 2, 6, 3, 3, 3, 3, 3, 8, 8, 8, 10, 10, 10, 2, 1, 1, 4, 3, 2, 9, 9, 8, 9, 4, 3, 4, 4, 3, 8, 6, 4, 9, 7, 4, 4, 4, 3, 5, 5, 3, 8, 8, 8, 8, 5, 1, 6, 6, 6, 9, 6, 2, 7, 4, 2, 6, 4, 4, 8, 8, 8, 7, 5, 3, 8, 3, 3, 9, 5, 4, 7, 6, 5, 6, 5, 4, 4, 3, 2, 6, 4, 4, 7, 7, 4, 6, 4, 3, 7, 6, 4, 6, 4, 4, 4, 3, 2, 6, 3, 2, 5, 5, 3, 7, 5, 4, 9, 9, 9, 5, 4, 3, 4, 2, 1, 7, 6, 4, 9, 5, 4, 8, 4, 3, 9, 8, 8, 10, 9, 8, 7, 4, 4, 8, 8, 8, 7, 7, 7, 5, 5, 4, 6, 4, 4, 6, 6, 6, 10, 9, 8, 6, 4, 2, 7, 6, 6, 4, 4, 4, 7, 7, 6, 3, 3, 2, 7, 5, 4, 7, 6, 4, 9, 7, 6, 5, 3, 3, 7, 6, 6, 9, 7, 5, 9, 9, 9, 4, 3, 2, 8, 6, 6, 5, 4, 4, 10, 9, 8, 6, 6, 4, 2, 1, 1, 7, 4, 4, 5, 5, 4, 8, 5, 1, 9, 8, 5, 10, 9, 8, 10, 7, 6, 9, 7, 4, 3, 2, 1, 9, 9, 8, 3, 2, 1, 3, 3, 3, 6, 6, 4, 7, 4, 3, 9, 9, 9|];